Ti192
1.0
18.307420 0.000000 0.000000
-9.153710 15.854691 0.000000
0.000000 0.000000 11.314733
Ti
192
direct
0.000000 0.000000 0.000000 Ti
0.000000 0.000000 0.250000 Ti
0.000000 0.000000 0.500000 Ti
0.000000 0.000000 0.750000 Ti
0.000000 0.250000 0.000000 Ti
0.000000 0.250000 0.250000 Ti
0.000000 0.250000 0.500000 Ti
0.000000 0.250000 0.750000 Ti
0.000000 0.500000 0.000000 Ti
0.000000 0.500000 0.250000 Ti
0.000000 0.500000 0.500000 Ti
0.000000 0.500000 0.750000 Ti
1.000000 0.750000 0.000000 Ti
1.000000 0.750000 0.250000 Ti
1.000000 0.750000 0.500000 Ti
1.000000 0.750000 0.750000 Ti
0.250000 0.000000 0.000000 Ti
0.250000 0.000000 0.250000 Ti
0.250000 0.000000 0.500000 Ti
0.250000 0.000000 0.750000 Ti
0.250000 0.250000 0.000000 Ti
0.250000 0.250000 0.250000 Ti
0.250000 0.250000 0.500000 Ti
0.250000 0.250000 0.750000 Ti
0.250000 0.500000 0.000000 Ti
0.250000 0.500000 0.250000 Ti
0.250000 0.500000 0.500000 Ti
0.250000 0.500000 0.750000 Ti
0.250000 0.750000 0.000000 Ti
0.250000 0.750000 0.250000 Ti
0.250000 0.750000 0.500000 Ti
0.250000 0.750000 0.750000 Ti
0.500000 0.000000 0.000000 Ti
0.500000 0.000000 0.250000 Ti
0.500000 0.000000 0.500000 Ti
0.500000 0.000000 0.750000 Ti
0.500000 0.250000 0.000000 Ti
0.500000 0.250000 0.250000 Ti
0.500000 0.250000 0.500000 Ti
0.500000 0.250000 0.750000 Ti
0.500000 0.500000 0.000000 Ti
0.500000 0.500000 0.250000 Ti
0.500000 0.500000 0.500000 Ti
0.500000 0.500000 0.750000 Ti
0.500000 0.750000 0.000000 Ti
0.500000 0.750000 0.250000 Ti
0.500000 0.750000 0.500000 Ti
0.500000 0.750000 0.750000 Ti
0.750000 0.000000 0.000000 Ti
0.750000 0.000000 0.250000 Ti
0.750000 0.000000 0.500000 Ti
0.750000 0.000000 0.750000 Ti
0.750000 0.250000 0.000000 Ti
0.750000 0.250000 0.250000 Ti
0.750000 0.250000 0.500000 Ti
0.750000 0.250000 0.750000 Ti
0.750000 0.500000 0.000000 Ti
0.750000 0.500000 0.250000 Ti
0.750000 0.500000 0.500000 Ti
0.750000 0.500000 0.750000 Ti
0.750000 0.750000 0.000000 Ti
0.750000 0.750000 0.250000 Ti
0.750000 0.750000 0.500000 Ti
0.750000 0.750000 0.750000 Ti
0.083333 0.166667 0.125000 Ti
0.083333 0.166667 0.375000 Ti
0.083333 0.166667 0.625000 Ti
0.083333 0.166667 0.875000 Ti
0.083333 0.416667 0.125000 Ti
0.083333 0.416667 0.375000 Ti
0.083333 0.416667 0.625000 Ti
0.083333 0.416667 0.875000 Ti
0.083333 0.666667 0.125000 Ti
0.083333 0.666667 0.375000 Ti
0.083333 0.666667 0.625000 Ti
0.083333 0.666667 0.875000 Ti
0.083333 0.916667 0.125000 Ti
0.083333 0.916667 0.375000 Ti
0.083333 0.916667 0.625000 Ti
0.083333 0.916667 0.875000 Ti
0.333333 0.166667 0.125000 Ti
0.333333 0.166667 0.375000 Ti
0.333333 0.166667 0.625000 Ti
0.333333 0.166667 0.875000 Ti
0.333333 0.416667 0.125000 Ti
0.333333 0.416667 0.375000 Ti
0.333333 0.416667 0.625000 Ti
0.333333 0.416667 0.875000 Ti
0.333333 0.666667 0.125000 Ti
0.333333 0.666667 0.375000 Ti
0.333333 0.666667 0.625000 Ti
0.333333 0.666667 0.875000 Ti
0.333333 0.916667 0.125000 Ti
0.333333 0.916667 0.375000 Ti
0.333333 0.916667 0.625000 Ti
0.333333 0.916667 0.875000 Ti
0.583333 0.166667 0.125000 Ti
0.583333 0.166667 0.375000 Ti
0.583333 0.166667 0.625000 Ti
0.583333 0.166667 0.875000 Ti
0.583333 0.416667 0.125000 Ti
0.583333 0.416667 0.375000 Ti
0.583333 0.416667 0.625000 Ti
0.583333 0.416667 0.875000 Ti
0.583333 0.666667 0.125000 Ti
0.583333 0.666667 0.375000 Ti
0.583333 0.666667 0.625000 Ti
0.583333 0.666667 0.875000 Ti
0.583333 0.916667 0.125000 Ti
0.583333 0.916667 0.375000 Ti
0.583333 0.916667 0.625000 Ti
0.583333 0.916667 0.875000 Ti
0.833333 0.166667 0.125000 Ti
0.833333 0.166667 0.375000 Ti
0.833333 0.166667 0.625000 Ti
0.833333 0.166667 0.875000 Ti
0.833333 0.416667 0.125000 Ti
0.833333 0.416667 0.375000 Ti
0.833333 0.416667 0.625000 Ti
0.833333 0.416667 0.875000 Ti
0.833333 0.666667 0.125000 Ti
0.833333 0.666667 0.375000 Ti
0.833333 0.666667 0.625000 Ti
0.833333 0.666667 0.875000 Ti
0.833333 0.916667 0.125000 Ti
0.833333 0.916667 0.375000 Ti
0.833333 0.916667 0.625000 Ti
0.833333 0.916667 0.875000 Ti
0.166667 0.083333 0.125000 Ti
0.166667 0.083333 0.375000 Ti
0.166667 0.083333 0.625000 Ti
0.166667 0.083333 0.875000 Ti
0.166667 0.333333 0.125000 Ti
0.166667 0.333333 0.375000 Ti
0.166667 0.333333 0.625000 Ti
0.166667 0.333333 0.875000 Ti
0.166667 0.583333 0.125000 Ti
0.166667 0.583333 0.375000 Ti
0.166667 0.583333 0.625000 Ti
0.166667 0.583333 0.875000 Ti
0.166667 0.833333 0.125000 Ti
0.166667 0.833333 0.375000 Ti
0.166667 0.833333 0.625000 Ti
0.166667 0.833333 0.875000 Ti
0.416667 0.083333 0.125000 Ti
0.416667 0.083333 0.375000 Ti
0.416667 0.083333 0.625000 Ti
0.416667 0.083333 0.875000 Ti
0.416667 0.333333 0.125000 Ti
0.416667 0.333333 0.375000 Ti
0.416667 0.333333 0.625000 Ti
0.416667 0.333333 0.875000 Ti
0.416667 0.583333 0.125000 Ti
0.416667 0.583333 0.375000 Ti
0.416667 0.583333 0.625000 Ti
0.416667 0.583333 0.875000 Ti
0.416667 0.833333 0.125000 Ti
0.416667 0.833333 0.375000 Ti
0.416667 0.833333 0.625000 Ti
0.416667 0.833333 0.875000 Ti
0.666667 0.083333 0.125000 Ti
0.666667 0.083333 0.375000 Ti
0.666667 0.083333 0.625000 Ti
0.666667 0.083333 0.875000 Ti
0.666667 0.333333 0.125000 Ti
0.666667 0.333333 0.375000 Ti
0.666667 0.333333 0.625000 Ti
0.666667 0.333333 0.875000 Ti
0.666667 0.583333 0.125000 Ti
0.666667 0.583333 0.375000 Ti
0.666667 0.583333 0.625000 Ti
0.666667 0.583333 0.875000 Ti
0.666667 0.833333 0.125000 Ti
0.666667 0.833333 0.375000 Ti
0.666667 0.833333 0.625000 Ti
0.666667 0.833333 0.875000 Ti
0.916667 0.083333 0.125000 Ti
0.916667 0.083333 0.375000 Ti
0.916667 0.083333 0.625000 Ti
0.916667 0.083333 0.875000 Ti
0.916667 0.333333 0.125000 Ti
0.916667 0.333333 0.375000 Ti
0.916667 0.333333 0.625000 Ti
0.916667 0.333333 0.875000 Ti
0.916667 0.583333 0.125000 Ti
0.916667 0.583333 0.375000 Ti
0.916667 0.583333 0.625000 Ti
0.916667 0.583333 0.875000 Ti
0.916667 0.833333 0.125000 Ti
0.916667 0.833333 0.375000 Ti
0.916667 0.833333 0.625000 Ti
0.916667 0.833333 0.875000 Ti
