Ti64
1.0
10.619355 0.000000 -3.754509
-5.309677 9.196631 -3.754509
0.000000 0.000000 11.263527
Ti
64
direct
0.000000 0.000000 0.000000 Ti
0.000000 0.000000 0.250000 Ti
0.000000 0.000000 0.500000 Ti
0.000000 0.000000 0.750000 Ti
1.000000 0.250000 1.000000 Ti
1.000000 0.250000 0.250000 Ti
1.000000 0.250000 0.500000 Ti
1.000000 0.250000 0.750000 Ti
1.000000 0.500000 1.000000 Ti
1.000000 0.500000 0.250000 Ti
1.000000 0.500000 0.500000 Ti
1.000000 0.500000 0.750000 Ti
1.000000 0.750000 1.000000 Ti
1.000000 0.750000 0.250000 Ti
1.000000 0.750000 0.500000 Ti
1.000000 0.750000 0.750000 Ti
0.250000 0.000000 0.000000 Ti
0.250000 0.000000 0.250000 Ti
0.250000 0.000000 0.500000 Ti
0.250000 0.000000 0.750000 Ti
0.250000 0.250000 0.000000 Ti
0.250000 0.250000 0.250000 Ti
0.250000 0.250000 0.500000 Ti
0.250000 0.250000 0.750000 Ti
0.250000 0.500000 1.000000 Ti
0.250000 0.500000 0.250000 Ti
0.250000 0.500000 0.500000 Ti
0.250000 0.500000 0.750000 Ti
0.250000 0.750000 0.000000 Ti
0.250000 0.750000 0.250000 Ti
0.250000 0.750000 0.500000 Ti
0.250000 0.750000 0.750000 Ti
0.500000 0.000000 0.000000 Ti
0.500000 0.000000 0.250000 Ti
0.500000 0.000000 0.500000 Ti
0.500000 0.000000 0.750000 Ti
0.500000 0.250000 0.000000 Ti
0.500000 0.250000 0.250000 Ti
0.500000 0.250000 0.500000 Ti
0.500000 0.250000 0.750000 Ti
0.500000 0.500000 0.000000 Ti
0.500000 0.500000 0.250000 Ti
0.500000 0.500000 0.500000 Ti
0.500000 0.500000 0.750000 Ti
0.500000 0.750000 1.000000 Ti
0.500000 0.750000 0.250000 Ti
0.500000 0.750000 0.500000 Ti
0.500000 0.750000 0.750000 Ti
0.750000 0.000000 0.000000 Ti
0.750000 0.000000 0.250000 Ti
0.750000 0.000000 0.500000 Ti
0.750000 0.000000 0.750000 Ti
0.750000 0.250000 0.000000 Ti
0.750000 0.250000 0.250000 Ti
0.750000 0.250000 0.500000 Ti
0.750000 0.250000 0.750000 Ti
0.750000 0.500000 1.000000 Ti
0.750000 0.500000 0.250000 Ti
0.750000 0.500000 0.500000 Ti
0.750000 0.500000 0.750000 Ti
0.750000 0.750000 0.000000 Ti
0.750000 0.750000 0.250000 Ti
0.750000 0.750000 0.500000 Ti
0.750000 0.750000 0.750000 Ti
