ALGO = Fast
EDIFF = 0.0004
IBRION = 2
ICHARG = 1
ISIF = 3
ISMEAR = 2
ISPIN = 2
LORBIT = 11
LREAL = Auto
LWAVE = False
NELM = 100
NSW = 99
PREC = Accurate
SIGMA = 0.2
