pymatgen 4.7.6+ generated KPOINTS with grid density = 1650 / atom
0
Gamma
